(set-logic ALL)
(declare-fun seed0_s () String)
(assert (and (or (and (and (and (and (and (and (and (and (and (and (and (and (and (and (and (and (and (not (= (ite (= (str.at (str.substr seed0_s 3 (- (str.len seed0_s) 3)) 0) "0") 1 0) 0)) (= (ite (= (str.len (str.substr seed0_s 3 (- (str.len seed0_s) 3))) 1) 1 0) 0)) (not (= (ite (= (str.len (str.substr seed0_s 2 (- 3 2))) 1) 1 0) 0))) (not (= (ite (= (str.len (str.substr seed0_s 1 (- 2 1))) 1) 1 0) 0))) (not (= (ite (= (str.len (str.substr seed0_s 0 (- 1 0))) 1) 1 0) 0))) (not (= (ite (<= (- (- (- (str.len seed0_s) 1) 1) 1) 3) 1 0) 0))) (not (= (ite (> (- (- (- (str.len seed0_s) 1) 1) 1) 0) 1 0) 0))) (= (ite (> (str.len seed0_s) 12) 1 0) 0)) (= (ite (= (str.len seed0_s) 0) 1 0) 0)) (>= 3 0)) (>= (- (str.len seed0_s) 3) 0)) (>= 3 0)) (>= (- (str.len seed0_s) 3) 0)) (>= 2 0)) (>= (- 3 2) 0)) (>= 1 0)) (>= (- 2 1) 0)) (>= 0 0)) (and (str.< (str.++ seed0_s "") (str.++ seed0_s "mAoQtdzGD")) (str.contains (str.++ seed0_s "gEBNRvp8IzKHslPCVFx2") (str.++ seed0_s "5w6JxcL")))) (or (>= (- 1 0) 0) (xor (str.prefixof (str.++ seed0_s "3vol0XNCdzI4k9p2nfW") (str.++ seed0_s "4zGJnuHL7ltmfV6")) (str.contains (str.++ seed0_s "cC") (str.++ seed0_s "OgW50IQ7nK6J1XGFrmVw"))))))
(check-sat)
(exit)